%SETS
JOBS = 1..14;
MACHINES = 1..10;
SPEED    = 2;

time = array3d(JOBS,MACHINES,1..SPEED,time = time = array3d(JOBS,MACHINES,1..SPEED,time = [14, 4, 29, 10, 5, 2, 54, 18, 1, 1, 28, 9, 13, 4, 21, 7, 3, 1, 5, 1, 41, 14, 89, ... ] // array too long to display, dimensions: (30)
 // array too long to display, dimensions: (280)
);
energy = array3d(JOBS,MACHINES,1..SPEED,energy = energy = array3d(JOBS,MACHINES,1..SPEED,energy = [86, 96, 74, 90, 95, 98, 58, 83, 99, 99, 75, 91, 87, 96, 81, 93, 97, 99, 95, 99, ... ] // array too long to display, dimensions: (30)
 // array too long to display, dimensions: (280)
);
precedence = array2d(JOBS,MACHINES,precedence = [0, 8, 7, 4, 6, 2, 5, 3, 9, 1, 2, 0, 3, 7, 5, 6, 9, 8, 4, 1, 9, 4, 1, 8, 0, 3, 2,... ] // array too long to display, dimensions: (140)
);